4 9 100 1 2
0 200
 1 35.00 35.00 0.00 0.00 0.00 0 0 0 230
 2 41.00 49.00 10.00 10.00 18.00 1 1 1 73 204
 3 35.00 17.00 10.00 7.00 10.00 1 1 1 18 147
 4 55.00 45.00 10.00 13.00 13.00 1 1 1 76 165
 5 55.00 20.00 10.00 19.00 18.00 1 1 1 73 195
 6 15.00 30.00 10.00 26.00 2.00 1 1 1 20 167
 7 25.00 30.00 10.00 3.00 5.00 1 1 1 49 158
 8 20.00 50.00 10.00 5.00 10.00 1 1 1 36 135
 9 10.00 43.00 10.00 9.00 36.00 1 1 1 50 149
 10 55.00 60.00 10.00 16.00 20.00 1 1 1 47 156
 11 30.00 60.00 10.00 16.00 21.00 1 1 1 85 172
 12 20.00 65.00 10.00 12.00 26.00 1 1 1 33 152
 13 50.00 35.00 10.00 19.00 3.00 1 1 1 15 133
 14 30.00 25.00 10.00 23.00 18.00 1 1 1 79 208
 15 15.00 10.00 10.00 20.00 17.00 1 1 1 32 187
 16 30.00 5.00 10.00 8.00 5.00 1 1 1 30 152
 17 10.00 20.00 10.00 19.00 9.00 1 1 1 29 139
 18 5.00 30.00 10.00 2.00 15.00 1 1 1 60 189
 19 20.00 40.00 10.00 12.00 9.00 1 1 1 47 136
 20 15.00 60.00 10.00 17.00 20.00 1 1 1 32 146
 21 45.00 65.00 10.00 9.00 36.00 1 1 1 79 182
 22 45.00 20.00 10.00 11.00 5.00 1 1 1 18 136
 23 45.00 10.00 10.00 18.00 6.00 1 1 1 50 153
 24 55.00 5.00 10.00 29.00 9.00 1 1 1 36 155
 25 65.00 35.00 10.00 3.00 6.00 1 1 1 58 190
 26 65.00 20.00 10.00 6.00 19.00 1 1 1 56 186
 27 45.00 30.00 10.00 17.00 6.00 1 1 1 87 186
 28 35.00 40.00 10.00 16.00 9.00 1 1 1 5 140
 29 41.00 37.00 10.00 16.00 19.00 1 1 1 6 136
 30 64.00 42.00 10.00 9.00 17.00 1 1 1 29 150
 31 40.00 60.00 10.00 21.00 18.00 1 1 1 25 132
 32 31.00 52.00 10.00 27.00 16.00 1 1 1 17 138
 33 35.00 69.00 10.00 23.00 26.00 1 1 1 67 186
 34 53.00 52.00 10.00 11.00 14.00 1 1 1 24 161
 35 65.00 55.00 10.00 14.00 20.00 1 1 1 70 173
 36 63.00 65.00 10.00 8.00 11.00 1 1 1 54 178
 37 2.00 60.00 10.00 5.00 11.00 1 1 1 41 178
 38 20.00 20.00 10.00 8.00 35.00 1 1 1 87 190
 39 5.00 5.00 10.00 16.00 14.00 1 1 1 42 153
 40 60.00 12.00 10.00 31.00 27.00 1 1 1 33 186
 41 40.00 25.00 10.00 9.00 8.00 1 1 1 40 139
 42 42.00 7.00 10.00 5.00 12.00 1 1 1 43 160
 43 24.00 12.00 10.00 5.00 11.00 1 1 1 25 158
 44 23.00 3.00 10.00 7.00 9.00 1 1 1 82 185
 45 11.00 14.00 10.00 18.00 12.00 1 1 1 31 144
 46 6.00 38.00 10.00 16.00 41.00 1 1 1 29 169
 47 2.00 48.00 10.00 1.00 9.00 1 1 1 63 180
 48 8.00 56.00 10.00 27.00 25.00 1 1 1 34 176
 49 13.00 52.00 10.00 36.00 16.00 1 1 1 65 192
 50 6.00 68.00 10.00 30.00 9.00 1 1 1 73 152
 51 47.00 47.00 10.00 13.00 1.00 1 1 1 75 182
 52 49.00 58.00 10.00 10.00 7.00 1 1 1 36 149
 53 27.00 43.00 10.00 9.00 15.00 1 1 1 11 133
 54 37.00 31.00 10.00 14.00 22.00 1 1 1 51 148
 55 57.00 29.00 10.00 18.00 13.00 1 1 1 90 197
 56 63.00 23.00 10.00 2.00 3.00 1 1 1 69 189
 57 53.00 12.00 10.00 6.00 8.00 1 1 1 76 190
 58 32.00 12.00 10.00 7.00 9.00 1 1 1 48 163
 59 36.00 26.00 10.00 18.00 23.00 1 1 1 84 210
 60 21.00 24.00 10.00 28.00 16.00 1 1 1 17 183
 61 17.00 34.00 10.00 3.00 19.00 1 1 1 70 201
 62 12.00 24.00 10.00 13.00 10.00 1 1 1 29 132
 63 24.00 58.00 10.00 19.00 16.00 1 1 1 25 154
 64 27.00 69.00 10.00 10.00 13.00 1 1 1 34 172
 65 15.00 77.00 10.00 9.00 13.00 1 1 1 46 165
 66 62.00 77.00 10.00 20.00 7.00 1 1 1 49 170
 67 49.00 73.00 10.00 25.00 27.00 1 1 1 68 179
 68 67.00 5.00 10.00 25.00 25.00 1 1 1 43 156
 69 56.00 39.00 10.00 36.00 23.00 1 1 1 80 198
 70 37.00 47.00 10.00 6.00 16.00 1 1 1 12 137
 71 37.00 56.00 10.00 5.00 31.00 1 1 1 48 198
 72 57.00 68.00 10.00 15.00 29.00 1 1 1 39 148
 73 47.00 16.00 10.00 25.00 28.00 1 1 1 22 170
 74 44.00 17.00 10.00 9.00 14.00 1 1 1 30 135
 75 46.00 13.00 10.00 8.00 8.00 1 1 1 74 195
 76 49.00 11.00 10.00 18.00 6.00 1 1 1 27 141
 77 49.00 42.00 10.00 13.00 30.00 1 1 1 27 128
 78 53.00 43.00 10.00 14.00 1.00 1 1 1 72 200
 79 61.00 52.00 10.00 3.00 3.00 1 1 1 42 159
 80 57.00 48.00 10.00 23.00 12.00 1 1 1 47 146
 81 56.00 37.00 10.00 6.00 18.00 1 1 1 73 198
 82 55.00 54.00 10.00 26.00 3.00 1 1 1 57 140
 83 15.00 47.00 10.00 16.00 27.00 1 1 1 23 146
 84 14.00 37.00 10.00 11.00 23.00 1 1 1 21 157
 85 11.00 31.00 10.00 7.00 16.00 1 1 1 57 154
 86 16.00 22.00 10.00 41.00 5.00 1 1 1 44 147
 87 4.00 18.00 10.00 35.00 2.00 1 1 1 49 148
 88 28.00 18.00 10.00 26.00 25.00 1 1 1 61 134
 89 26.00 52.00 10.00 9.00 9.00 1 1 1 21 136
 90 26.00 35.00 10.00 15.00 11.00 1 1 1 68 211
 91 31.00 67.00 10.00 3.00 7.00 1 1 1 46 153
 92 15.00 19.00 10.00 1.00 5.00 1 1 1 70 194
 93 22.00 22.00 10.00 2.00 10.00 1 1 1 18 159
 94 18.00 24.00 10.00 22.00 3.00 1 1 1 60 199
 95 26.00 27.00 10.00 27.00 16.00 1 1 1 58 151
 96 25.00 24.00 10.00 20.00 7.00 1 1 1 14 143
 97 22.00 27.00 10.00 11.00 17.00 1 1 1 89 190
 98 25.00 21.00 10.00 12.00 19.00 1 1 1 92 183
 99 19.00 21.00 10.00 10.00 2.00 1 1 1 21 142
 100 20.00 26.00 10.00 9.00 26.00 1 1 1 33 142
 101 18.00 18.00 10.00 17.00 8.00 1 1 1 51 195
